 Minimize
[ 1.0000000000000000 Z0 * Z4  ]
Subject to
c1: [ 3.0000000000000000 Z0 * Z1  + 5.0000000000000000 Z0 * Z3  + 1.0000000000000000 Z2 * Z5  ] >= 10.000000
c2: [ 1.0000000000000000 Z0 * Z1 -1.0000000000000000 Z0 * Z3  ] >= 2.660000
c3: [ -1.0000000000000000 Z0 * Z1 -5.0000000000000000 Z0 * Z3  + 1.0000000000000000 Z0 * Z4 -2.0000000000000000 Z2 * Z2  ] = 0.000000
ac1: Z0 - 1 = 0
ac2: [ 1.0000000000000000 Z0 * Z5 -1.0000000000000000 Z3 * Z3  ] = 0
Bounds
1 <= Z0 <= 1
-100000000.0000000000000000 <= Z1 <= 200.0000000000000000
-100000000.0000000000000000 <= Z2 <= 200.0000000000000000
-100000000.0000000000000000 <= Z3 <= 200.0000000000000000
-100000000.0000000000000000 <= Z4 <= 100000000.0000000000000000
-20000000000.0000000000000000 <= Z5 <= 10000000000000000.0000000000000000
Generals
Z1 Z2 Z3 
End